(set-logic QF_LRA)
(declare-fun X0 () Real )
(declare-fun Y0 () Real )
(declare-fun X1 () Real )
(declare-fun Y1 () Real )
(declare-fun X2 () Real )
(declare-fun Y2 () Real )
(declare-fun X3 () Real )
(declare-fun Y3 () Real )
(declare-fun X4 () Real )
(declare-fun Y4 () Real )
(declare-fun X5 () Real )
(declare-fun Y5 () Real )
(declare-fun X6 () Real )
(declare-fun Y6 () Real )
(declare-fun X7 () Real )
(declare-fun Y7 () Real )
(declare-fun X8 () Real )
(declare-fun Y8 () Real )
(declare-fun X9 () Real )
(declare-fun Y9 () Real )
(declare-fun X10 () Real )
(declare-fun Y10 () Real )
(declare-fun X11 () Real )
(declare-fun Y11 () Real )
(declare-fun X12 () Real )
(declare-fun Y12 () Real )
(declare-fun X13 () Real )
(declare-fun Y13 () Real )
(declare-fun X14 () Real )
(declare-fun Y14 () Real )
(declare-fun Z () Real )
(declare-fun k () Real )
(assert (let
(( $goal (>= Z k) ))
(let
((
$phi ( and 
( or ( <= ( + X0 47 ) X1 )  ( <= ( + X1 83 ) X0 )  ( <= ( + Y0 23 ) Y1 )  ( <= ( + Y1 44 ) Y0 )  )
( or ( <= ( + X0 47 ) X2 )  ( <= ( + X2 79 ) X0 )  ( <= ( + Y0 23 ) Y2 )  ( <= ( + Y2 11 ) Y0 )  )
( or ( <= ( + X0 47 ) X3 )  ( <= ( + X3 5 ) X0 )  ( <= ( + Y0 23 ) Y3 )  ( <= ( + Y3 71 ) Y0 )  )
( or ( <= ( + X0 47 ) X4 )  ( <= ( + X4 6 ) X0 )  ( <= ( + Y0 23 ) Y4 )  ( <= ( + Y4 15 ) Y0 )  )
( or ( <= ( + X0 47 ) X5 )  ( <= ( + X5 82 ) X0 )  ( <= ( + Y0 23 ) Y5 )  ( <= ( + Y5 32 ) Y0 )  )
( or ( <= ( + X0 47 ) X6 )  ( <= ( + X6 33 ) X0 )  ( <= ( + Y0 23 ) Y6 )  ( <= ( + Y6 71 ) Y0 )  )
( or ( <= ( + X0 47 ) X7 )  ( <= ( + X7 92 ) X0 )  ( <= ( + Y0 23 ) Y7 )  ( <= ( + Y7 97 ) Y0 )  )
( or ( <= ( + X0 47 ) X8 )  ( <= ( + X8 41 ) X0 )  ( <= ( + Y0 23 ) Y8 )  ( <= ( + Y8 75 ) Y0 )  )
( or ( <= ( + X0 47 ) X9 )  ( <= ( + X9 2 ) X0 )  ( <= ( + Y0 23 ) Y9 )  ( <= ( + Y9 90 ) Y0 )  )
( or ( <= ( + X0 47 ) X10 )  ( <= ( + X10 23 ) X0 )  ( <= ( + Y0 23 ) Y10 )  ( <= ( + Y10 44 ) Y0 )  )
( or ( <= ( + X0 47 ) X11 )  ( <= ( + X11 16 ) X0 )  ( <= ( + Y0 23 ) Y11 )  ( <= ( + Y11 67 ) Y0 )  )
( or ( <= ( + X0 47 ) X12 )  ( <= ( + X12 73 ) X0 )  ( <= ( + Y0 23 ) Y12 )  ( <= ( + Y12 75 ) Y0 )  )
( or ( <= ( + X0 47 ) X13 )  ( <= ( + X13 1 ) X0 )  ( <= ( + Y0 23 ) Y13 )  ( <= ( + Y13 5 ) Y0 )  )
( or ( <= ( + X0 47 ) X14 )  ( <= ( + X14 93 ) X0 )  ( <= ( + Y0 23 ) Y14 )  ( <= ( + Y14 76 ) Y0 )  )
( or ( <= ( + X1 83 ) X2 )  ( <= ( + X2 79 ) X1 )  ( <= ( + Y1 44 ) Y2 )  ( <= ( + Y2 11 ) Y1 )  )
( or ( <= ( + X1 83 ) X3 )  ( <= ( + X3 5 ) X1 )  ( <= ( + Y1 44 ) Y3 )  ( <= ( + Y3 71 ) Y1 )  )
( or ( <= ( + X1 83 ) X4 )  ( <= ( + X4 6 ) X1 )  ( <= ( + Y1 44 ) Y4 )  ( <= ( + Y4 15 ) Y1 )  )
( or ( <= ( + X1 83 ) X5 )  ( <= ( + X5 82 ) X1 )  ( <= ( + Y1 44 ) Y5 )  ( <= ( + Y5 32 ) Y1 )  )
( or ( <= ( + X1 83 ) X6 )  ( <= ( + X6 33 ) X1 )  ( <= ( + Y1 44 ) Y6 )  ( <= ( + Y6 71 ) Y1 )  )
( or ( <= ( + X1 83 ) X7 )  ( <= ( + X7 92 ) X1 )  ( <= ( + Y1 44 ) Y7 )  ( <= ( + Y7 97 ) Y1 )  )
( or ( <= ( + X1 83 ) X8 )  ( <= ( + X8 41 ) X1 )  ( <= ( + Y1 44 ) Y8 )  ( <= ( + Y8 75 ) Y1 )  )
( or ( <= ( + X1 83 ) X9 )  ( <= ( + X9 2 ) X1 )  ( <= ( + Y1 44 ) Y9 )  ( <= ( + Y9 90 ) Y1 )  )
( or ( <= ( + X1 83 ) X10 )  ( <= ( + X10 23 ) X1 )  ( <= ( + Y1 44 ) Y10 )  ( <= ( + Y10 44 ) Y1 )  )
( or ( <= ( + X1 83 ) X11 )  ( <= ( + X11 16 ) X1 )  ( <= ( + Y1 44 ) Y11 )  ( <= ( + Y11 67 ) Y1 )  )
( or ( <= ( + X1 83 ) X12 )  ( <= ( + X12 73 ) X1 )  ( <= ( + Y1 44 ) Y12 )  ( <= ( + Y12 75 ) Y1 )  )
( or ( <= ( + X1 83 ) X13 )  ( <= ( + X13 1 ) X1 )  ( <= ( + Y1 44 ) Y13 )  ( <= ( + Y13 5 ) Y1 )  )
( or ( <= ( + X1 83 ) X14 )  ( <= ( + X14 93 ) X1 )  ( <= ( + Y1 44 ) Y14 )  ( <= ( + Y14 76 ) Y1 )  )
( or ( <= ( + X2 79 ) X3 )  ( <= ( + X3 5 ) X2 )  ( <= ( + Y2 11 ) Y3 )  ( <= ( + Y3 71 ) Y2 )  )
( or ( <= ( + X2 79 ) X4 )  ( <= ( + X4 6 ) X2 )  ( <= ( + Y2 11 ) Y4 )  ( <= ( + Y4 15 ) Y2 )  )
( or ( <= ( + X2 79 ) X5 )  ( <= ( + X5 82 ) X2 )  ( <= ( + Y2 11 ) Y5 )  ( <= ( + Y5 32 ) Y2 )  )
( or ( <= ( + X2 79 ) X6 )  ( <= ( + X6 33 ) X2 )  ( <= ( + Y2 11 ) Y6 )  ( <= ( + Y6 71 ) Y2 )  )
( or ( <= ( + X2 79 ) X7 )  ( <= ( + X7 92 ) X2 )  ( <= ( + Y2 11 ) Y7 )  ( <= ( + Y7 97 ) Y2 )  )
( or ( <= ( + X2 79 ) X8 )  ( <= ( + X8 41 ) X2 )  ( <= ( + Y2 11 ) Y8 )  ( <= ( + Y8 75 ) Y2 )  )
( or ( <= ( + X2 79 ) X9 )  ( <= ( + X9 2 ) X2 )  ( <= ( + Y2 11 ) Y9 )  ( <= ( + Y9 90 ) Y2 )  )
( or ( <= ( + X2 79 ) X10 )  ( <= ( + X10 23 ) X2 )  ( <= ( + Y2 11 ) Y10 )  ( <= ( + Y10 44 ) Y2 )  )
( or ( <= ( + X2 79 ) X11 )  ( <= ( + X11 16 ) X2 )  ( <= ( + Y2 11 ) Y11 )  ( <= ( + Y11 67 ) Y2 )  )
( or ( <= ( + X2 79 ) X12 )  ( <= ( + X12 73 ) X2 )  ( <= ( + Y2 11 ) Y12 )  ( <= ( + Y12 75 ) Y2 )  )
( or ( <= ( + X2 79 ) X13 )  ( <= ( + X13 1 ) X2 )  ( <= ( + Y2 11 ) Y13 )  ( <= ( + Y13 5 ) Y2 )  )
( or ( <= ( + X2 79 ) X14 )  ( <= ( + X14 93 ) X2 )  ( <= ( + Y2 11 ) Y14 )  ( <= ( + Y14 76 ) Y2 )  )
( or ( <= ( + X3 5 ) X4 )  ( <= ( + X4 6 ) X3 )  ( <= ( + Y3 71 ) Y4 )  ( <= ( + Y4 15 ) Y3 )  )
( or ( <= ( + X3 5 ) X5 )  ( <= ( + X5 82 ) X3 )  ( <= ( + Y3 71 ) Y5 )  ( <= ( + Y5 32 ) Y3 )  )
( or ( <= ( + X3 5 ) X6 )  ( <= ( + X6 33 ) X3 )  ( <= ( + Y3 71 ) Y6 )  ( <= ( + Y6 71 ) Y3 )  )
( or ( <= ( + X3 5 ) X7 )  ( <= ( + X7 92 ) X3 )  ( <= ( + Y3 71 ) Y7 )  ( <= ( + Y7 97 ) Y3 )  )
( or ( <= ( + X3 5 ) X8 )  ( <= ( + X8 41 ) X3 )  ( <= ( + Y3 71 ) Y8 )  ( <= ( + Y8 75 ) Y3 )  )
( or ( <= ( + X3 5 ) X9 )  ( <= ( + X9 2 ) X3 )  ( <= ( + Y3 71 ) Y9 )  ( <= ( + Y9 90 ) Y3 )  )
( or ( <= ( + X3 5 ) X10 )  ( <= ( + X10 23 ) X3 )  ( <= ( + Y3 71 ) Y10 )  ( <= ( + Y10 44 ) Y3 )  )
( or ( <= ( + X3 5 ) X11 )  ( <= ( + X11 16 ) X3 )  ( <= ( + Y3 71 ) Y11 )  ( <= ( + Y11 67 ) Y3 )  )
( or ( <= ( + X3 5 ) X12 )  ( <= ( + X12 73 ) X3 )  ( <= ( + Y3 71 ) Y12 )  ( <= ( + Y12 75 ) Y3 )  )
( or ( <= ( + X3 5 ) X13 )  ( <= ( + X13 1 ) X3 )  ( <= ( + Y3 71 ) Y13 )  ( <= ( + Y13 5 ) Y3 )  )
( or ( <= ( + X3 5 ) X14 )  ( <= ( + X14 93 ) X3 )  ( <= ( + Y3 71 ) Y14 )  ( <= ( + Y14 76 ) Y3 )  )
( or ( <= ( + X4 6 ) X5 )  ( <= ( + X5 82 ) X4 )  ( <= ( + Y4 15 ) Y5 )  ( <= ( + Y5 32 ) Y4 )  )
( or ( <= ( + X4 6 ) X6 )  ( <= ( + X6 33 ) X4 )  ( <= ( + Y4 15 ) Y6 )  ( <= ( + Y6 71 ) Y4 )  )
( or ( <= ( + X4 6 ) X7 )  ( <= ( + X7 92 ) X4 )  ( <= ( + Y4 15 ) Y7 )  ( <= ( + Y7 97 ) Y4 )  )
( or ( <= ( + X4 6 ) X8 )  ( <= ( + X8 41 ) X4 )  ( <= ( + Y4 15 ) Y8 )  ( <= ( + Y8 75 ) Y4 )  )
( or ( <= ( + X4 6 ) X9 )  ( <= ( + X9 2 ) X4 )  ( <= ( + Y4 15 ) Y9 )  ( <= ( + Y9 90 ) Y4 )  )
( or ( <= ( + X4 6 ) X10 )  ( <= ( + X10 23 ) X4 )  ( <= ( + Y4 15 ) Y10 )  ( <= ( + Y10 44 ) Y4 )  )
( or ( <= ( + X4 6 ) X11 )  ( <= ( + X11 16 ) X4 )  ( <= ( + Y4 15 ) Y11 )  ( <= ( + Y11 67 ) Y4 )  )
( or ( <= ( + X4 6 ) X12 )  ( <= ( + X12 73 ) X4 )  ( <= ( + Y4 15 ) Y12 )  ( <= ( + Y12 75 ) Y4 )  )
( or ( <= ( + X4 6 ) X13 )  ( <= ( + X13 1 ) X4 )  ( <= ( + Y4 15 ) Y13 )  ( <= ( + Y13 5 ) Y4 )  )
( or ( <= ( + X4 6 ) X14 )  ( <= ( + X14 93 ) X4 )  ( <= ( + Y4 15 ) Y14 )  ( <= ( + Y14 76 ) Y4 )  )
( or ( <= ( + X5 82 ) X6 )  ( <= ( + X6 33 ) X5 )  ( <= ( + Y5 32 ) Y6 )  ( <= ( + Y6 71 ) Y5 )  )
( or ( <= ( + X5 82 ) X7 )  ( <= ( + X7 92 ) X5 )  ( <= ( + Y5 32 ) Y7 )  ( <= ( + Y7 97 ) Y5 )  )
( or ( <= ( + X5 82 ) X8 )  ( <= ( + X8 41 ) X5 )  ( <= ( + Y5 32 ) Y8 )  ( <= ( + Y8 75 ) Y5 )  )
( or ( <= ( + X5 82 ) X9 )  ( <= ( + X9 2 ) X5 )  ( <= ( + Y5 32 ) Y9 )  ( <= ( + Y9 90 ) Y5 )  )
( or ( <= ( + X5 82 ) X10 )  ( <= ( + X10 23 ) X5 )  ( <= ( + Y5 32 ) Y10 )  ( <= ( + Y10 44 ) Y5 )  )
( or ( <= ( + X5 82 ) X11 )  ( <= ( + X11 16 ) X5 )  ( <= ( + Y5 32 ) Y11 )  ( <= ( + Y11 67 ) Y5 )  )
( or ( <= ( + X5 82 ) X12 )  ( <= ( + X12 73 ) X5 )  ( <= ( + Y5 32 ) Y12 )  ( <= ( + Y12 75 ) Y5 )  )
( or ( <= ( + X5 82 ) X13 )  ( <= ( + X13 1 ) X5 )  ( <= ( + Y5 32 ) Y13 )  ( <= ( + Y13 5 ) Y5 )  )
( or ( <= ( + X5 82 ) X14 )  ( <= ( + X14 93 ) X5 )  ( <= ( + Y5 32 ) Y14 )  ( <= ( + Y14 76 ) Y5 )  )
( or ( <= ( + X6 33 ) X7 )  ( <= ( + X7 92 ) X6 )  ( <= ( + Y6 71 ) Y7 )  ( <= ( + Y7 97 ) Y6 )  )
( or ( <= ( + X6 33 ) X8 )  ( <= ( + X8 41 ) X6 )  ( <= ( + Y6 71 ) Y8 )  ( <= ( + Y8 75 ) Y6 )  )
( or ( <= ( + X6 33 ) X9 )  ( <= ( + X9 2 ) X6 )  ( <= ( + Y6 71 ) Y9 )  ( <= ( + Y9 90 ) Y6 )  )
( or ( <= ( + X6 33 ) X10 )  ( <= ( + X10 23 ) X6 )  ( <= ( + Y6 71 ) Y10 )  ( <= ( + Y10 44 ) Y6 )  )
( or ( <= ( + X6 33 ) X11 )  ( <= ( + X11 16 ) X6 )  ( <= ( + Y6 71 ) Y11 )  ( <= ( + Y11 67 ) Y6 )  )
( or ( <= ( + X6 33 ) X12 )  ( <= ( + X12 73 ) X6 )  ( <= ( + Y6 71 ) Y12 )  ( <= ( + Y12 75 ) Y6 )  )
( or ( <= ( + X6 33 ) X13 )  ( <= ( + X13 1 ) X6 )  ( <= ( + Y6 71 ) Y13 )  ( <= ( + Y13 5 ) Y6 )  )
( or ( <= ( + X6 33 ) X14 )  ( <= ( + X14 93 ) X6 )  ( <= ( + Y6 71 ) Y14 )  ( <= ( + Y14 76 ) Y6 )  )
( or ( <= ( + X7 92 ) X8 )  ( <= ( + X8 41 ) X7 )  ( <= ( + Y7 97 ) Y8 )  ( <= ( + Y8 75 ) Y7 )  )
( or ( <= ( + X7 92 ) X9 )  ( <= ( + X9 2 ) X7 )  ( <= ( + Y7 97 ) Y9 )  ( <= ( + Y9 90 ) Y7 )  )
( or ( <= ( + X7 92 ) X10 )  ( <= ( + X10 23 ) X7 )  ( <= ( + Y7 97 ) Y10 )  ( <= ( + Y10 44 ) Y7 )  )
( or ( <= ( + X7 92 ) X11 )  ( <= ( + X11 16 ) X7 )  ( <= ( + Y7 97 ) Y11 )  ( <= ( + Y11 67 ) Y7 )  )
( or ( <= ( + X7 92 ) X12 )  ( <= ( + X12 73 ) X7 )  ( <= ( + Y7 97 ) Y12 )  ( <= ( + Y12 75 ) Y7 )  )
( or ( <= ( + X7 92 ) X13 )  ( <= ( + X13 1 ) X7 )  ( <= ( + Y7 97 ) Y13 )  ( <= ( + Y13 5 ) Y7 )  )
( or ( <= ( + X7 92 ) X14 )  ( <= ( + X14 93 ) X7 )  ( <= ( + Y7 97 ) Y14 )  ( <= ( + Y14 76 ) Y7 )  )
( or ( <= ( + X8 41 ) X9 )  ( <= ( + X9 2 ) X8 )  ( <= ( + Y8 75 ) Y9 )  ( <= ( + Y9 90 ) Y8 )  )
( or ( <= ( + X8 41 ) X10 )  ( <= ( + X10 23 ) X8 )  ( <= ( + Y8 75 ) Y10 )  ( <= ( + Y10 44 ) Y8 )  )
( or ( <= ( + X8 41 ) X11 )  ( <= ( + X11 16 ) X8 )  ( <= ( + Y8 75 ) Y11 )  ( <= ( + Y11 67 ) Y8 )  )
( or ( <= ( + X8 41 ) X12 )  ( <= ( + X12 73 ) X8 )  ( <= ( + Y8 75 ) Y12 )  ( <= ( + Y12 75 ) Y8 )  )
( or ( <= ( + X8 41 ) X13 )  ( <= ( + X13 1 ) X8 )  ( <= ( + Y8 75 ) Y13 )  ( <= ( + Y13 5 ) Y8 )  )
( or ( <= ( + X8 41 ) X14 )  ( <= ( + X14 93 ) X8 )  ( <= ( + Y8 75 ) Y14 )  ( <= ( + Y14 76 ) Y8 )  )
( or ( <= ( + X9 2 ) X10 )  ( <= ( + X10 23 ) X9 )  ( <= ( + Y9 90 ) Y10 )  ( <= ( + Y10 44 ) Y9 )  )
( or ( <= ( + X9 2 ) X11 )  ( <= ( + X11 16 ) X9 )  ( <= ( + Y9 90 ) Y11 )  ( <= ( + Y11 67 ) Y9 )  )
( or ( <= ( + X9 2 ) X12 )  ( <= ( + X12 73 ) X9 )  ( <= ( + Y9 90 ) Y12 )  ( <= ( + Y12 75 ) Y9 )  )
( or ( <= ( + X9 2 ) X13 )  ( <= ( + X13 1 ) X9 )  ( <= ( + Y9 90 ) Y13 )  ( <= ( + Y13 5 ) Y9 )  )
( or ( <= ( + X9 2 ) X14 )  ( <= ( + X14 93 ) X9 )  ( <= ( + Y9 90 ) Y14 )  ( <= ( + Y14 76 ) Y9 )  )
( or ( <= ( + X10 23 ) X11 )  ( <= ( + X11 16 ) X10 )  ( <= ( + Y10 44 ) Y11 )  ( <= ( + Y11 67 ) Y10 )  )
( or ( <= ( + X10 23 ) X12 )  ( <= ( + X12 73 ) X10 )  ( <= ( + Y10 44 ) Y12 )  ( <= ( + Y12 75 ) Y10 )  )
( or ( <= ( + X10 23 ) X13 )  ( <= ( + X13 1 ) X10 )  ( <= ( + Y10 44 ) Y13 )  ( <= ( + Y13 5 ) Y10 )  )
( or ( <= ( + X10 23 ) X14 )  ( <= ( + X14 93 ) X10 )  ( <= ( + Y10 44 ) Y14 )  ( <= ( + Y14 76 ) Y10 )  )
( or ( <= ( + X11 16 ) X12 )  ( <= ( + X12 73 ) X11 )  ( <= ( + Y11 67 ) Y12 )  ( <= ( + Y12 75 ) Y11 )  )
( or ( <= ( + X11 16 ) X13 )  ( <= ( + X13 1 ) X11 )  ( <= ( + Y11 67 ) Y13 )  ( <= ( + Y13 5 ) Y11 )  )
( or ( <= ( + X11 16 ) X14 )  ( <= ( + X14 93 ) X11 )  ( <= ( + Y11 67 ) Y14 )  ( <= ( + Y14 76 ) Y11 )  )
( or ( <= ( + X12 73 ) X13 )  ( <= ( + X13 1 ) X12 )  ( <= ( + Y12 75 ) Y13 )  ( <= ( + Y13 5 ) Y12 )  )
( or ( <= ( + X12 73 ) X14 )  ( <= ( + X14 93 ) X12 )  ( <= ( + Y12 75 ) Y14 )  ( <= ( + Y14 76 ) Y12 )  )
( or ( <= ( + X13 1 ) X14 )  ( <= ( + X14 93 ) X13 )  ( <= ( + Y13 5 ) Y14 )  ( <= ( + Y14 76 ) Y13 )  )
( >= X0 0)
( <= ( + X0 47) Z)
( >= Y0 0)
( <= ( + Y0 23 ) 193)
( >= X1 0)
( <= ( + X1 83) Z)
( >= Y1 0)
( <= ( + Y1 44 ) 193)
( >= X2 0)
( <= ( + X2 79) Z)
( >= Y2 0)
( <= ( + Y2 11 ) 193)
( >= X3 0)
( <= ( + X3 5) Z)
( >= Y3 0)
( <= ( + Y3 71 ) 193)
( >= X4 0)
( <= ( + X4 6) Z)
( >= Y4 0)
( <= ( + Y4 15 ) 193)
( >= X5 0)
( <= ( + X5 82) Z)
( >= Y5 0)
( <= ( + Y5 32 ) 193)
( >= X6 0)
( <= ( + X6 33) Z)
( >= Y6 0)
( <= ( + Y6 71 ) 193)
( >= X7 0)
( <= ( + X7 92) Z)
( >= Y7 0)
( <= ( + Y7 97 ) 193)
( >= X8 0)
( <= ( + X8 41) Z)
( >= Y8 0)
( <= ( + Y8 75 ) 193)
( >= X9 0)
( <= ( + X9 2) Z)
( >= Y9 0)
( <= ( + Y9 90 ) 193)
( >= X10 0)
( <= ( + X10 23) Z)
( >= Y10 0)
( <= ( + Y10 44 ) 193)
( >= X11 0)
( <= ( + X11 16) Z)
( >= Y11 0)
( <= ( + Y11 67 ) 193)
( >= X12 0)
( <= ( + X12 73) Z)
( >= Y12 0)
( <= ( + Y12 75 ) 193)
( >= X13 0)
( <= ( + X13 1) Z)
( >= Y13 0)
( <= ( + Y13 5 ) 193)
( >= X14 0)
( <= ( + X14 93) Z)
( >= Y14 0)
( <= ( + Y14 76 ) 193)
) )
)(=> $phi $goal))))